(set-logic HORN)
(set-info :source |
    Benchmark: C_VC
    Output by Princess (http://www.philipp.ruemmer.org/princess.shtml)
|)
(set-info :status unknown)
(declare-fun inv_main107 (Int Int Int Int Int Int Int Int) Bool)
(declare-fun inv_main121 (Int Int Int Int Int Int Int) Bool)
(declare-fun inv_main169 (Int Int Int Int Int Int Int Int) Bool)
(declare-fun inv_main181 (Int Int Int Int Int Int Int Int Int) Bool)
(declare-fun inv_main23 (Int Int Int Int Int Int Int Int Int) Bool)
(declare-fun inv_main24 (Int Int Int Int Int Int Int Int Int) Bool)
(declare-fun inv_main26 (Int Int Int Int Int Int Int Int) Bool)
(declare-fun inv_main73 (Int Int Int Int Int Int Int Int Int) Bool)
(declare-fun inv_main75 (Int Int Int Int Int Int Int Int) Bool)
(declare-fun inv_main88 (Int Int Int Int Int Int Int Int) Bool)
(declare-fun inv_main91 (Int Int Int Int Int Int Int Int Int) Bool)
(declare-fun inv_main97 (Int Int Int Int Int Int Int Int) Bool)
(assert (forall ((var0 Int) (var1 Int) (var2 Int) (var3 Int) (var4 Int) (var5 Int) (var6 Int) (var7 Int) (var8 Int) (var9 Int)) (or (not (and (<= 0 var7) (<= 0 var0))) (or (not (and (inv_main97 var6 var2 var9 var7 var8 var1 var5 var4) (and (and (not (= var6 41)) (= var0 0)) (= var3 0)))) (inv_main107 var6 var2 var9 var7 var8 var1 var5 var4)))))
(assert (forall ((var0 Int) (var1 Int) (var2 Int) (var3 Int) (var4 Int) (var5 Int) (var6 Int) (var7 Int) (var8 Int) (var9 Int)) (or (not (and (<= 0 var7) (<= 0 var1))) (or (not (and (inv_main23 (- 1) var2 var9 var1 var7 var8 var0 var5 var4) (and (= var6 (- 1)) (= var3 0)))) (inv_main26 var2 var9 var1 var7 var8 var0 var5 var4)))))
(assert (forall ((var0 Int) (var1 Int) (var2 Int) (var3 Int) (var4 Int) (var5 Int) (var6 Int) (var7 Int) (var8 Int) (var9 Int)) (or (not (and (<= 0 var7) (<= 0 var1))) (or (not (and (inv_main23 var6 var2 var9 var1 var7 var8 var0 var5 var4) (and (and (not (= var1 0)) (not (= var6 (- 1)))) (= var3 0)))) (inv_main26 var2 var9 var1 var7 var8 var0 var5 var4)))))
(assert (forall ((var0 Int) (var1 Int) (var2 Int) (var3 Int) (var4 Int) (var5 Int) (var6 Int) (var7 Int) (var8 Int) (var9 Int) (var10 Int)) (or (not (and (<= 0 var8) (<= 0 var1))) (or (not (and (inv_main23 var7 var3 var10 0 var8 var9 var2 var6 var5) (and (and (and (and (not (<= 0 (+ var5 (* (- 1) (+ var10 (- 5)))))) (not (= var7 (- 1)))) (= (+ var5 1) var0)) (= var1 0)) (= var4 0)))) (inv_main26 var3 var10 var1 var8 var9 var2 var6 var0)))))
(assert (forall ((var0 Int) (var1 Int) (var2 Int) (var3 Int) (var4 Int) (var5 Int) (var6 Int) (var7 Int) (var8 Int) (var9 Int)) (or (not (and (<= 0 var6) (<= 0 var1))) (or (not (and (inv_main26 var2 var9 var1 var6 var7 var0 var5 var4) (and (and (and (and (not (<= 0 (+ var0 (- 1)))) (not (<= 0 (+ var7 (- 1))))) (not (= var5 2))) (= var8 0)) (= var3 0)))) (inv_main24 var8 var2 var9 var1 var6 var7 var0 var5 var4)))))
(assert (forall ((var0 Int) (var1 Int) (var2 Int) (var3 Int) (var4 Int) (var5 Int) (var6 Int) (var7 Int) (var8 Int) (var9 Int)) (or (not (and (<= 0 var6) (<= 0 var1))) (or (not (and (inv_main26 var2 var9 var1 var6 var7 var0 var5 var4) (and (and (and (and (and (<= 0 (* (- 1) var0)) (not (= var5 2))) (<= 0 (* (- 1) var7))) (not (= var2 0))) (= var8 var2)) (= var3 0)))) (inv_main24 var8 var2 var9 var1 var6 var7 var0 var5 var4)))))
(assert (forall ((var0 Int) (var1 Int) (var2 Int) (var3 Int) (var4 Int) (var5 Int) (var6 Int) (var7 Int) (var8 Int) (var9 Int)) (or (not (and (<= 0 var7) (<= 0 var0))) (or (not (and (inv_main73 var6 var2 var9 0 var7 var8 var1 var5 var4) (and (= var0 0) (= var3 0)))) (inv_main75 var6 var2 var9 var7 var8 var1 var5 var4)))))
(assert (forall ((var0 Int) (var1 Int) (var2 Int) (var3 Int) (var4 Int) (var5 Int) (var6 Int) (var7 Int) (var8 Int) (var9 Int) (var10 Int)) (or (not (and (and (<= 0 var8) (<= 0 var7)) (<= 0 var1))) (or (not (and (inv_main73 33 var2 var10 var1 var8 var9 var0 var5 var4) (and (and (and (and (and (not (= var5 2)) (not (<= 0 (+ var9 (- 1))))) (not (= var1 0))) (= var6 33)) (= 0 var7)) (= var3 0)))) (inv_main75 var6 var2 var10 var8 var9 var0 var5 var4)))))
(assert (forall ((var0 Int) (var1 Int) (var2 Int) (var3 Int) (var4 Int) (var5 Int) (var6 Int) (var7 Int) (var8 Int) (var9 Int)) (or (not (and (<= 0 var7) (<= 0 var2))) (or (not (and (inv_main75 92 var1 var9 var7 var8 var0 var5 var4) (and (and (= var6 92) (= 1 var2)) (= var3 0)))) (inv_main91 var6 var1 var9 var2 var7 var8 var0 var5 var4)))))
(assert (forall ((var0 Int) (var1 Int) (var2 Int) (var3 Int) (var4 Int) (var5 Int) (var6 Int) (var7 Int) (var8 Int) (var9 Int)) (or (not (and (<= 0 var7) (<= 0 var0))) (or (not (and (inv_main75 var6 var2 var9 var7 var8 var1 var5 var4) (and (and (and (and (not (= var6 40)) (not (= var5 2))) (not (= var6 92))) (= var0 0)) (= var3 0)))) (inv_main97 var6 var2 var9 var7 var8 var1 var5 var4)))))
(assert (forall ((var0 Int) (var1 Int) (var2 Int) (var3 Int) (var4 Int) (var5 Int) (var6 Int) (var7 Int) (var8 Int) (var9 Int)) (or (not (and (<= 0 var7) (<= 0 var0))) (or (not (and (inv_main75 var6 var2 var9 var7 var8 var1 2 var5) (and (and (and (not (= var6 92)) (= var4 2)) (= var0 0)) (= var3 0)))) (inv_main91 var6 var2 var9 var0 var7 var8 var1 var4 var5)))))
(assert (forall ((var0 Int) (var1 Int) (var2 Int) (var3 Int) (var4 Int) (var5 Int) (var6 Int) (var7 Int) (var8 Int) (var9 Int) (var10 Int)) (or (not (and (<= 0 var8) (<= 0 var0))) (or (not (and (inv_main75 40 var2 var10 var8 var9 var1 var5 var4) (and (and (and (and (not (= var5 2)) (= var7 0)) (= var6 40)) (= var0 0)) (= var3 0)))) (inv_main97 var6 var2 var10 var8 var9 var1 var5 var4)))))
(assert (forall ((var0 Int) (var1 Int) (var2 Int) (var3 Int) (var4 Int) (var5 Int) (var6 Int) (var7 Int) (var8 Int) (var9 Int) (var10 Int) (var11 Int)) (or (not (and (<= 0 var9) (<= 0 var0))) (or (not (and (inv_main75 40 var3 var11 var9 var10 var2 var6 var5) (and (and (and (and (and (not (= var7 0)) (not (= var6 2))) (= (- 1) var8)) (= (+ var10 1) var1)) (= var0 0)) (= var4 0)))) (inv_main91 var8 var3 var11 var0 var9 var1 var2 var6 var5)))))
(assert (forall ((var0 Int) (var1 Int) (var2 Int) (var3 Int) (var4 Int) (var5 Int) (var6 Int) (var7 Int) (var8 Int) (var9 Int) (var10 Int)) (or (not (and (<= 0 var7) (<= 0 var0))) (or (not (and (inv_main97 41 var2 var10 var7 var8 var1 var5 var4) (and (and (and (= var9 0) (= var6 41)) (= var0 0)) (= var3 0)))) (inv_main107 var6 var2 var10 var7 var8 var1 var5 var4)))))
(assert (forall ((var0 Int) (var1 Int) (var2 Int) (var3 Int) (var4 Int) (var5 Int) (var6 Int) (var7 Int) (var8 Int) (var9 Int) (var10 Int)) (or (not (and (<= 0 var6) (<= 0 var0))) (or (not (and (inv_main97 41 var2 var10 var6 var7 var1 var5 var4) (and (and (and (and (<= 0 (* (- 1) var7)) (not (= var9 0))) (= (- 1) var8)) (= var0 0)) (= var3 0)))) (inv_main91 var8 var2 var10 var0 var6 var7 var1 var5 var4)))))
(assert (forall ((var0 Int) (var1 Int) (var2 Int) (var3 Int) (var4 Int) (var5 Int) (var6 Int) (var7 Int) (var8 Int) (var9 Int) (var10 Int) (var11 Int)) (or (not (and (<= 0 var8) (<= 0 var0))) (or (not (and (inv_main97 41 var2 var11 var8 var9 var1 var6 var5) (and (and (and (and (and (not (<= 0 (* (- 1) var9))) (not (= var10 0))) (= var7 41)) (= (+ var9 (- 1)) var3)) (= var0 0)) (= var4 0)))) (inv_main91 var7 var2 var11 var0 var8 var3 var1 var6 var5)))))
(assert (forall ((var0 Int) (var1 Int) (var2 Int) (var3 Int) (var4 Int) (var5 Int) (var6 Int) (var7 Int) (var8 Int) (var9 Int) (var10 Int)) (or (not (and (<= 0 var8) (<= 0 var0))) (or (not (and (inv_main107 var7 var3 var10 var8 var9 var2 var6 var5) (and (and (and (<= 0 (+ var9 (- 1))) (= (- 1) var1)) (= var0 0)) (= var4 0)))) (inv_main91 var1 var3 var10 var0 var8 var9 var2 var6 var5)))))
(assert (forall ((var0 Int) (var1 Int) (var2 Int) (var3 Int) (var4 Int) (var5 Int) (var6 Int) (var7 Int) (var8 Int) (var9 Int) (var10 Int)) (or (not (and (<= 0 var8) (<= 0 var0))) (or (not (and (inv_main107 60 var3 var10 var8 var9 var2 var6 var5) (and (and (and (and (not (<= 0 (+ var9 (- 1)))) (= var7 60)) (= (+ var2 1) var1)) (= var0 0)) (= var4 0)))) (inv_main121 var3 var10 var8 var9 var1 var6 var5)))))
(assert (forall ((var0 Int) (var1 Int) (var2 Int) (var3 Int) (var4 Int) (var5 Int) (var6 Int) (var7 Int) (var8 Int) (var9 Int) (var10 Int) (var11 Int)) (or (not (and (<= 0 var9) (<= 0 var0))) (or (not (and (inv_main121 var2 var11 var9 var10 var1 var6 var5) (and (and (and (and (not (= var3 0)) (= var7 0)) (= var8 60)) (= var0 0)) (= var4 0)))) (inv_main121 var2 var11 var9 var10 var1 var6 var5)))))
(assert (forall ((var0 Int) (var1 Int) (var2 Int) (var3 Int) (var4 Int) (var5 Int) (var6 Int) (var7 Int) (var8 Int) (var9 Int)) (or (not (and (<= 0 var7) (<= 0 var0))) (or (not (and (inv_main107 var6 var2 var9 var7 var8 var1 var5 var4) (and (and (and (and (and (not (= var2 32)) (not (= var6 62))) (not (= var6 60))) (not (<= 0 (+ var8 (- 1))))) (= var0 0)) (= var3 0)))) (inv_main91 var6 var2 var9 var0 var7 var8 var1 var5 var4)))))
(assert (forall ((var0 Int) (var1 Int) (var2 Int) (var3 Int) (var4 Int) (var5 Int) (var6 Int) (var7 Int) (var8 Int) (var9 Int) (var10 Int)) (or (not (and (<= 0 var8) (<= 0 var0))) (or (not (and (inv_main107 var7 32 var10 var8 var9 var3 var6 var5) (and (and (and (and (and (and (not (= var7 62)) (not (= var7 60))) (not (<= 0 (+ var9 (- 1))))) (= var2 0)) (= var1 32)) (= var0 0)) (= var4 0)))) (inv_main91 var7 var1 var10 var0 var8 var9 var3 var6 var5)))))
(assert (forall ((var0 Int) (var1 Int) (var2 Int) (var3 Int) (var4 Int) (var5 Int) (var6 Int) (var7 Int) (var8 Int) (var9 Int) (var10 Int) (var11 Int) (var12 Int)) (or (not (and (<= 0 var10) (<= 0 var0))) (or (not (and (inv_main107 var9 32 var12 var10 var11 var4 var8 var7) (and (and (and (and (and (and (and (and (not (= var5 0)) (not (= var3 0))) (not (= var9 62))) (not (= var9 60))) (not (<= 0 (+ var11 (- 1))))) (= var2 32)) (= 32 var1)) (= var0 0)) (= var6 0)))) (inv_main91 var1 var2 var12 var0 var10 var11 var4 var8 var7)))))
(assert (forall ((var0 Int) (var1 Int) (var2 Int) (var3 Int) (var4 Int) (var5 Int) (var6 Int) (var7 Int) (var8 Int) (var9 Int) (var10 Int) (var11 Int)) (or (not (and (<= 0 var9) (<= 0 var0))) (or (not (and (inv_main107 var8 32 var11 var9 var10 var3 var7 var6) (and (and (and (and (and (and (and (not (= var2 0)) (not (= var8 62))) (not (= var8 60))) (not (<= 0 (+ var10 (- 1))))) (= var4 0)) (= var1 32)) (= var0 0)) (= var5 0)))) (inv_main91 var8 var1 var11 var0 var9 var10 var3 var7 var6)))))
(assert (forall ((var0 Int) (var1 Int) (var2 Int) (var3 Int) (var4 Int) (var5 Int) (var6 Int) (var7 Int) (var8 Int) (var9 Int)) (or (not (and (<= 0 var7) (<= 0 var1))) (or (not (and (inv_main91 var6 var2 var9 var1 var7 var8 var0 var5 var4) (and (and (not (= var6 var2)) (not (= var6 (- 1)))) (= var3 0)))) (inv_main169 var6 var2 var9 var1 var7 var8 var0 var4)))))
(assert (forall ((var0 Int) (var1 Int) (var2 Int) (var3 Int) (var4 Int) (var5 Int) (var6 Int) (var7 Int) (var8 Int) (var9 Int)) (or (not (and (<= 0 var7) (<= 0 var1))) (or (not (and (inv_main91 var2 var2 var9 var1 var7 var8 var0 var5 var4) (and (and (and (not (<= 0 (* (- 1) var0))) (not (= var2 (- 1)))) (= var6 var2)) (= var3 0)))) (inv_main169 var6 var2 var9 var1 var7 var8 var0 var4)))))
(assert (forall ((var0 Int) (var1 Int) (var2 Int) (var3 Int) (var4 Int) (var5 Int) (var6 Int) (var7 Int) (var8 Int) (var9 Int)) (or (not (and (<= 0 var7) (<= 0 var1))) (or (not (and (inv_main91 var2 var2 var9 var1 var7 var8 var0 var5 var4) (and (and (and (and (not (= var5 2)) (<= 0 (* (- 1) var0))) (not (= var2 (- 1)))) (= var6 var2)) (= var3 0)))) (inv_main24 var6 var2 var9 var1 var7 var8 var0 var5 var4)))))
(assert (forall ((var0 Int) (var1 Int) (var2 Int) (var3 Int) (var4 Int) (var5 Int) (var6 Int) (var7 Int) (var8 Int) (var9 Int)) (or (not (and (<= 0 var7) (<= 0 var1))) (or (not (and (inv_main91 var2 var2 var9 var1 var7 var8 var0 2 var5) (and (and (and (and (<= 0 (* (- 1) var0)) (not (= var2 (- 1)))) (= var4 2)) (= var6 var2)) (= var3 0)))) (inv_main169 var6 var2 var9 var1 var7 var8 var0 var5)))))
(assert (forall ((var0 Int) (var1 Int) (var2 Int) (var3 Int) (var4 Int) (var5 Int) (var6 Int) (var7 Int) (var8 Int) (var9 Int)) (or (not (and (<= 0 var7) (<= 0 var1))) (or (not (and (inv_main169 var6 var2 var9 var1 var7 var8 var0 var5) (and (not (= var4 5)) (= var3 0)))) (inv_main181 var6 var2 var9 var1 var7 var8 var0 var4 var5)))))
(assert (forall ((var0 Int) (var1 Int) (var2 Int) (var3 Int) (var4 Int) (var5 Int) (var6 Int) (var7 Int) (var8 Int) (var9 Int) (var10 Int)) (or (not (and (<= 0 var8) (<= 0 var1))) (or (not (and (inv_main169 var6 var2 var10 var1 var8 var9 var0 var5) (and (and (= var7 0) (= var4 5)) (= var3 0)))) (inv_main181 var6 var2 var10 var1 var8 var9 var0 var4 var5)))))
(assert (forall ((var0 Int) (var1 Int) (var2 Int) (var3 Int) (var4 Int) (var5 Int) (var6 Int) (var7 Int) (var8 Int) (var9 Int) (var10 Int)) (or (not (and (<= 0 var8) (<= 0 var1))) (or (not (and (inv_main169 var6 var2 var10 var1 var8 var9 var0 var5) (and (and (and (not (= var7 0)) (not (= var7 0))) (= var4 5)) (= var3 0)))) (inv_main181 var6 var2 var10 var1 var8 var9 var0 var4 var5)))))
(assert (forall ((var0 Int) (var1 Int) (var2 Int) (var3 Int) (var4 Int) (var5 Int) (var6 Int) (var7 Int) (var8 Int) (var9 Int) (var10 Int)) (or (not (and (and (<= 0 var8) (<= 0 var4)) (<= 0 var1))) (or (not (and (inv_main73 var7 var2 var10 var1 var8 var9 var0 var6 var5) (and (and (and (and (and (not (<= 0 (+ var5 (* (- 1) (+ var10 (- 5)))))) (not (= var7 33))) (not (<= 0 (+ var9 (- 1))))) (not (= var1 0))) (= 0 var4)) (= var3 0)))) (inv_main88 var7 var2 var10 var8 var9 var0 var6 var5)))))
(assert (forall ((var0 Int) (var1 Int) (var2 Int) (var3 Int) (var4 Int) (var5 Int) (var6 Int) (var7 Int) (var8 Int) (var9 Int) (var10 Int)) (or (not (and (and (<= 0 var8) (<= 0 var3)) (<= 0 var1))) (or (not (and (inv_main73 33 var2 var10 var1 var8 var9 var0 2 var6) (and (and (and (and (and (and (not (<= 0 (+ var6 (* (- 1) (+ var10 (- 5)))))) (not (<= 0 (+ var9 (- 1))))) (not (= var1 0))) (= var5 2)) (= var7 33)) (= 0 var3)) (= var4 0)))) (inv_main88 var7 var2 var10 var8 var9 var0 var5 var6)))))
(assert (forall ((var0 Int) (var1 Int) (var2 Int) (var3 Int) (var4 Int) (var5 Int) (var6 Int) (var7 Int) (var8 Int) (var9 Int) (var10 Int) (var11 Int)) (or (not (and (and (<= 0 var10) (<= 0 var8)) (<= 0 var0))) (or (not (and (inv_main121 var3 var11 var8 var9 var2 var6 var5) (and (and (and (and (not (= var1 0)) (= 1 var10)) (= var7 60)) (= var0 0)) (= var4 0)))) (inv_main91 var7 var3 var11 var0 var10 var9 var2 var6 var5)))))
(assert (forall ((var0 Int) (var1 Int) (var2 Int) (var3 Int) (var4 Int) (var5 Int) (var6 Int) (var7 Int) (var8 Int) (var9 Int) (var10 Int)) (or (not (and (<= 0 var8) (<= 0 var0))) (or (not (and (inv_main121 var2 var10 var8 var9 var1 var6 var5) (and (and (and (= var3 0) (= var7 60)) (= var0 0)) (= var4 0)))) (inv_main91 var7 var2 var10 var0 var8 var9 var1 var6 var5)))))
(assert (forall ((var0 Int) (var1 Int) (var2 Int) (var3 Int) (var4 Int) (var5 Int) (var6 Int) (var7 Int) (var8 Int) (var9 Int) (var10 Int) (var11 Int) (var12 Int) (var13 Int)) (or (not (and (and (<= 0 var10) (<= 0 var4)) (<= 0 var3))) (or (not (and (inv_main121 var0 var13 var3 var12 var5 var2 var8) (and (and (and (and (and (and (not (= var1 0)) (not (= var9 0))) (not (= var6 0))) (= 1 var10)) (= var11 60)) (= var4 0)) (= var7 0)))) (inv_main91 var11 var0 var13 var4 var10 var12 var5 var2 var8)))))
(assert (forall ((var0 Int) (var1 Int) (var2 Int) (var3 Int) (var4 Int) (var5 Int) (var6 Int) (var7 Int) (var8 Int) (var9 Int) (var10 Int) (var11 Int) (var12 Int)) (or (not (and (<= 0 var10) (<= 0 var0))) (or (not (and (inv_main121 var2 var12 var10 var11 var1 var7 var6) (and (and (and (and (and (not (= var8 0)) (not (= var4 0))) (= var3 0)) (= var9 60)) (= var0 0)) (= var5 0)))) (inv_main91 var9 var2 var12 var0 var10 var11 var1 var7 var6)))))
(assert (forall ((var0 Int) (var1 Int) (var2 Int) (var3 Int) (var4 Int) (var5 Int) (var6 Int) (var7 Int) (var8 Int) (var9 Int) (var10 Int)) (or (not (and (and (<= 0 var8) (<= 0 var2)) (<= 0 var1))) (or (not (and (inv_main107 62 var4 var10 var8 var9 var3 var7 var6) (and (and (and (and (and (<= 0 (* (- 1) var3)) (not (<= 0 (+ var9 (- 1))))) (= (- 1) var0)) (= 0 var2)) (= var1 0)) (= var5 0)))) (inv_main91 var0 var4 var10 var1 var2 var9 var3 var7 var6)))))
(assert (forall ((var0 Int) (var1 Int) (var2 Int) (var3 Int) (var4 Int) (var5 Int) (var6 Int) (var7 Int) (var8 Int) (var9 Int) (var10 Int) (var11 Int)) (or (not (and (and (<= 0 var9) (<= 0 var4)) (<= 0 var0))) (or (not (and (inv_main107 62 var2 var11 var9 var10 var1 var6 var5) (and (and (and (and (and (and (not (<= 0 (* (- 1) var1))) (not (<= 0 (+ var10 (- 1))))) (= var7 62)) (= 0 var4)) (= (+ var1 (- 1)) var8)) (= var0 0)) (= var3 0)))) (inv_main91 var7 var2 var11 var0 var4 var10 var8 var6 var5)))))
(assert (forall ((var0 Int) (var1 Int) (var2 Int) (var3 Int) (var4 Int) (var5 Int) (var6 Int) (var7 Int) (var8 Int) (var9 Int) (var10 Int) (var11 Int) (var12 Int)) (or (not (and (<= 0 var8) (<= 0 var1))) (or (not (and (inv_main181 var7 var2 var12 var1 var8 var9 var0 var5 var4) (and (and (and (not (= var11 0)) (not (= var6 0))) (= (- 1) var10)) (= var3 0)))) (inv_main24 var10 var2 var12 var1 var8 var9 var0 var5 var4)))))
(assert (forall ((var0 Int) (var1 Int) (var2 Int) (var3 Int) (var4 Int) (var5 Int) (var6 Int) (var7 Int) (var8 Int) (var9 Int) (var10 Int)) (or (not (and (<= 0 var8) (<= 0 var1))) (or (not (and (inv_main181 var7 var2 var10 var1 var8 var9 var0 var5 var4) (and (not (= var6 0)) (= var3 0)))) (inv_main24 var7 var2 var10 var1 var8 var9 var0 var5 var4)))))
(assert (forall ((var0 Int) (var1 Int) (var2 Int) (var3 Int) (var4 Int) (var5 Int) (var6 Int) (var7 Int) (var8 Int) (var9 Int) (var10 Int) (var11 Int) (var12 Int)) (or (not (and (and (and (and (<= 0 var9) (<= 0 var8)) (<= 0 var6)) (<= 0 var5)) (<= 0 var2))) (or (not (and (and (and (and (and (and (and (and (and (and (<= 0 var5) (<= 0 var9)) (<= 0 var2)) (= (- 1) var4)) (= 0 var6)) (= 0 var8)) (= 0 var3)) (= 0 var0)) (= 1 var12)) (= 0 var11)) (= 0 var7))) (inv_main23 var4 var1 var10 var6 var8 var3 var0 var12 var7)))))
(assert (forall ((var0 Int) (var1 Int) (var2 Int) (var3 Int) (var4 Int) (var5 Int) (var6 Int) (var7 Int) (var8 Int) (var9 Int) (var10 Int) (var11 Int)) (or (not (and (and (<= 0 var8) (<= 0 var7)) (<= 0 var1))) (or (not (and (inv_main73 var6 var2 var11 var1 var8 var9 var0 var5 var4) (and (and (and (and (<= 0 (+ var9 (- 1))) (not (= var1 0))) (= (- 1) var10)) (= 0 var7)) (= var3 0)))) (inv_main23 var10 var2 var11 var7 var8 var9 var0 var5 var4)))))
(assert (forall ((var0 Int) (var1 Int) (var2 Int) (var3 Int) (var4 Int) (var5 Int) (var6 Int) (var7 Int) (var8 Int) (var9 Int) (var10 Int)) (or (not (and (<= 0 var8) (<= 0 var0))) (or (not (and (inv_main88 var7 var2 var10 var8 var9 var1 var5 var4) (and (and (= (+ var4 1) var6) (= var0 0)) (= var3 0)))) (inv_main23 var7 var2 var10 var0 var8 var9 var1 var5 var6)))))
(assert (forall ((var0 Int) (var1 Int) (var2 Int) (var3 Int) (var4 Int) (var5 Int) (var6 Int) (var7 Int) (var8 Int) (var9 Int)) (or (not (and (<= 0 var7) (<= 0 var1))) (or (not (and (inv_main91 (- 1) var2 var9 var1 var7 var8 var0 var5 var4) (and (= var6 (- 1)) (= var3 0)))) (inv_main23 var6 var2 var9 var1 var7 var8 var0 var5 var4)))))
(assert (forall ((var0 Int) (var1 Int) (var2 Int) (var3 Int) (var4 Int) (var5 Int) (var6 Int) (var7 Int) (var8 Int) (var9 Int) (var10 Int) (var11 Int) (var12 Int)) (or (not (and (<= 0 var9) (<= 0 var2))) (or (not (and (inv_main181 var8 var3 var12 var2 var9 var10 var1 var6 var5) (and (and (and (not (= var7 0)) (= var11 0)) (= (- 1) var0)) (= var4 0)))) (inv_main23 var0 var3 var12 var2 var9 var10 var1 var6 var5)))))
(assert (forall ((var0 Int) (var1 Int) (var2 Int) (var3 Int) (var4 Int) (var5 Int) (var6 Int) (var7 Int) (var8 Int) (var9 Int) (var10 Int)) (or (not (and (<= 0 var8) (<= 0 var1))) (or (not (and (inv_main181 var7 var2 var10 var1 var8 var9 var0 var5 var4) (and (= var6 0) (= var3 0)))) (inv_main23 var7 var2 var10 var1 var8 var9 var0 var5 var4)))))
(assert (forall ((var0 Int) (var1 Int) (var2 Int) (var3 Int) (var4 Int) (var5 Int) (var6 Int) (var7 Int) (var8 Int) (var9 Int) (var10 Int)) (or (not (and (<= 0 var8) (<= 0 var1))) (or (not (and (inv_main24 var7 var2 var10 var1 var8 var9 var0 var6 var5) (and (and (and (not (= var7 var2)) (not (= var7 0))) (= var4 0)) (= var3 0)))) (inv_main23 var7 var2 var10 var1 var8 var9 var0 var6 var5)))))
(assert (forall ((var0 Int) (var1 Int) (var2 Int) (var3 Int) (var4 Int) (var5 Int) (var6 Int) (var7 Int) (var8 Int) (var9 Int) (var10 Int)) (or (not (and (<= 0 var8) (<= 0 var1))) (or (not (and (inv_main24 var2 var2 var10 var1 var8 var9 var0 var6 var5) (and (and (and (and (<= 0 (+ var0 (- 1))) (not (= var2 0))) (= var7 var2)) (= var4 0)) (= var3 0)))) (inv_main23 var7 var2 var10 var1 var8 var9 var0 var6 var5)))))
(assert (forall ((var0 Int) (var1 Int) (var2 Int) (var3 Int) (var4 Int) (var5 Int) (var6 Int) (var7 Int) (var8 Int) (var9 Int) (var10 Int) (var11 Int) (var12 Int)) (or (not (and (<= 0 var10) (<= 0 var2))) (or (not (and (inv_main24 var9 var3 var12 var2 var10 var11 var1 var7 var6) (and (and (and (and (and (and (not (= var9 var3)) (not (= var9 0))) (not (<= 0 (+ var6 (* (- 1) (+ var12 (- 5))))))) (not (= var8 0))) (= var0 0)) (= (+ var6 1) var4)) (= var5 0)))) (inv_main23 var9 var3 var12 var2 var10 var11 var1 var7 var4)))))
(assert (forall ((var0 Int) (var1 Int) (var2 Int) (var3 Int) (var4 Int) (var5 Int) (var6 Int) (var7 Int) (var8 Int) (var9 Int) (var10 Int) (var11 Int) (var12 Int)) (or (not (and (<= 0 var10) (<= 0 var2))) (or (not (and (inv_main24 var3 var3 var12 var2 var10 var11 var1 var6 var5) (and (and (and (and (and (and (and (<= 0 (+ var1 (- 1))) (not (= var3 0))) (not (<= 0 (+ var5 (* (- 1) (+ var12 (- 5))))))) (not (= var7 0))) (= var8 var3)) (= var0 0)) (= (+ var5 1) var9)) (= var4 0)))) (inv_main23 var8 var3 var12 var2 var10 var11 var1 var6 var9)))))
(assert (forall ((var0 Int) (var1 Int) (var2 Int) (var3 Int) (var4 Int) (var5 Int) (var6 Int) (var7 Int) (var8 Int) (var9 Int)) (or (not (and (<= 0 var7) (<= 0 var1))) (or (not (and (inv_main26 var2 var9 var1 var7 var8 var0 2 var6) (and (and (and (not (<= 0 (+ var6 (* (- 1) (+ var9 (- 5)))))) (= var5 2)) (= 34 var3)) (= var4 0)))) (inv_main73 var3 var2 var9 var1 var7 var8 var0 var5 var6)))))
(assert (forall ((var0 Int) (var1 Int) (var2 Int) (var3 Int) (var4 Int) (var5 Int) (var6 Int) (var7 Int) (var8 Int) (var9 Int)) (or (not (and (<= 0 var6) (<= 0 var1))) (or (not (and (inv_main26 var2 var9 var1 var6 var7 var0 var5 var4) (and (and (and (and (not (<= 0 (+ var4 (* (- 1) (+ var9 (- 5)))))) (<= 0 (+ var7 (- 1)))) (not (= var5 2))) (= 41 var8)) (= var3 0)))) (inv_main73 var8 var2 var9 var1 var6 var7 var0 var5 var4)))))
(assert (forall ((var0 Int) (var1 Int) (var2 Int) (var3 Int) (var4 Int) (var5 Int) (var6 Int) (var7 Int) (var8 Int) (var9 Int)) (or (not (and (<= 0 var6) (<= 0 var1))) (or (not (and (inv_main26 var2 var9 var1 var6 var7 var0 var5 var4) (and (and (and (and (and (not (<= 0 (+ var4 (* (- 1) (+ var9 (- 5)))))) (<= 0 (+ var0 (- 1)))) (not (<= 0 (+ var7 (- 1))))) (not (= var5 2))) (= 62 var8)) (= var3 0)))) (inv_main73 var8 var2 var9 var1 var6 var7 var0 var5 var4)))))
(assert (forall ((var0 Int) (var1 Int) (var2 Int) (var3 Int) (var4 Int) (var5 Int) (var6 Int) (var7 Int) (var8 Int) (var9 Int)) (or (not (and (<= 0 var6) (<= 0 var1))) (or (not (and (inv_main26 var2 var9 var1 var6 var7 var0 var5 var4) (and (and (and (not (<= 0 (+ var4 (* (- 1) (+ var9 (- 5)))))) (not (= var8 var2))) (not (= var8 0))) (= var3 0)))) (inv_main73 var8 var2 var9 var1 var6 var7 var0 var5 var4)))))
(assert (forall ((var0 Int) (var1 Int) (var2 Int) (var3 Int) (var4 Int) (var5 Int) (var6 Int) (var7 Int) (var8 Int) (var9 Int)) (or (not (and (<= 0 var6) (<= 0 var1))) (or (not (and (inv_main26 var2 var9 var1 var6 var7 var0 var5 var4) (and (and (and (and (not (<= 0 (+ var4 (* (- 1) (+ var9 (- 5)))))) (not (<= 0 (* (- 1) var7)))) (not (= var2 0))) (= var8 var2)) (= var3 0)))) (inv_main73 var8 var2 var9 var1 var6 var7 var0 var5 var4)))))
(assert (forall ((var0 Int) (var1 Int) (var2 Int) (var3 Int) (var4 Int) (var5 Int) (var6 Int) (var7 Int) (var8 Int) (var9 Int)) (or (not (and (<= 0 var6) (<= 0 var1))) (or (not (and (inv_main26 var2 var9 var1 var6 var7 var0 2 var5) (and (and (and (and (and (not (<= 0 (+ var5 (* (- 1) (+ var9 (- 5)))))) (<= 0 (* (- 1) var7))) (not (= var2 0))) (= var4 2)) (= var8 var2)) (= var3 0)))) (inv_main73 var8 var2 var9 var1 var6 var7 var0 var4 var5)))))
(assert (forall ((var0 Int) (var1 Int) (var2 Int) (var3 Int) (var4 Int) (var5 Int) (var6 Int) (var7 Int) (var8 Int) (var9 Int)) (or (not (and (<= 0 var6) (<= 0 var1))) (or (not (and (inv_main26 var2 var9 var1 var6 var7 var0 var5 var4) (and (and (and (and (and (and (and (not (<= 0 (+ var4 (* (- 1) (+ var9 (- 5)))))) (not (= var2 44))) (not (<= 0 (* (- 1) var0)))) (not (= var5 2))) (<= 0 (* (- 1) var7))) (not (= var2 0))) (= var8 var2)) (= var3 0)))) (inv_main73 var8 var2 var9 var1 var6 var7 var0 var5 var4)))))
(assert (forall ((var0 Int) (var1 Int) (var2 Int) (var3 Int) (var4 Int) (var5 Int) (var6 Int) (var7 Int) (var8 Int) (var9 Int)) (or (not (and (<= 0 var6) (<= 0 var2))) (or (not (and (inv_main26 44 var9 var2 0 var7 var1 var5 var4) (and (and (and (and (and (and (and (not (<= 0 (+ var4 (* (- 1) (+ var9 (- 5)))))) (not (<= 0 (* (- 1) var1)))) (not (= var5 2))) (<= 0 (* (- 1) var7))) (= var6 0)) (= var0 44)) (= 62 var8)) (= var3 0)))) (inv_main73 var8 var0 var9 var2 var6 var7 var1 var5 var4)))))
(assert (forall ((var0 Int) (var1 Int) (var2 Int) (var3 Int) (var4 Int) (var5 Int) (var6 Int) (var7 Int) (var8 Int) (var9 Int)) (or (not (and (<= 0 var6) (<= 0 var2))) (or (not (and (inv_main26 44 var9 var2 var6 var7 var1 var5 var4) (and (and (and (and (and (and (and (not (<= 0 (+ var4 (* (- 1) (+ var9 (- 5)))))) (not (= var6 0))) (not (<= 0 (* (- 1) var1)))) (not (= var5 2))) (<= 0 (* (- 1) var7))) (= var8 44)) (= var0 44)) (= var3 0)))) (inv_main73 var8 var0 var9 var2 var6 var7 var1 var5 var4)))))
(assert (forall ((var0 Int) (var1 Int) (var2 Int) (var3 Int) (var4 Int) (var5 Int) (var6 Int) (var7 Int)) (or (not (<= 0 var5)) (not (and (inv_main23 var4 var1 var7 0 var5 var6 var0 var3 var2) (and (and (not (<= 0 var2)) (not (<= 0 (+ var2 (* (- 1) (+ var7 (- 5))))))) (not (= var4 (- 1)))))))))
(assert (forall ((var0 Int) (var1 Int) (var2 Int) (var3 Int) (var4 Int) (var5 Int) (var6 Int) (var7 Int)) (or (not (<= 0 var5)) (not (and (inv_main23 var4 var1 var7 0 var5 var6 var0 var3 var2) (and (and (not (<= 0 (+ (+ var7 (* (- 1) var2)) (- 1)))) (not (<= 0 (+ var2 (* (- 1) (+ var7 (- 5))))))) (not (= var4 (- 1)))))))))
(assert (forall ((var0 Int) (var1 Int) (var2 Int) (var3 Int) (var4 Int) (var5 Int) (var6 Int) (var7 Int) (var8 Int)) (or (not (and (<= 0 var6) (<= 0 var1))) (not (and (inv_main73 var5 var2 var8 var1 var6 var7 var0 var4 var3) (not (<= 0 var3)))))))
(assert (forall ((var0 Int) (var1 Int) (var2 Int) (var3 Int) (var4 Int) (var5 Int) (var6 Int) (var7 Int) (var8 Int)) (or (not (and (<= 0 var6) (<= 0 var1))) (not (and (inv_main73 var5 var2 var8 var1 var6 var7 var0 var4 var3) (not (<= 0 (+ (+ var8 (* (- 1) var3)) (- 1)))))))))
(assert (forall ((var0 Int) (var1 Int) (var2 Int) (var3 Int) (var4 Int) (var5 Int) (var6 Int) (var7 Int)) (or (not (<= 0 var5)) (not (and (inv_main88 var4 var1 var7 var5 var6 var0 var3 var2) (not (<= 0 var2)))))))
(assert (forall ((var0 Int) (var1 Int) (var2 Int) (var3 Int) (var4 Int) (var5 Int) (var6 Int) (var7 Int)) (or (not (<= 0 var5)) (not (and (inv_main88 var4 var1 var7 var5 var6 var0 var3 var2) (not (<= 0 (+ (+ var7 (* (- 1) var2)) (- 1)))))))))
(assert (forall ((var0 Int) (var1 Int) (var2 Int) (var3 Int) (var4 Int) (var5 Int) (var6 Int) (var7 Int) (var8 Int) (var9 Int)) (or (not (and (<= 0 var7) (<= 0 var1))) (not (and (inv_main24 var6 var2 var9 var1 var7 var8 var0 var4 var3) (and (and (not (<= 0 var3)) (not (<= 0 (+ var3 (* (- 1) (+ var9 (- 5))))))) (not (= var5 0))))))))
(assert (forall ((var0 Int) (var1 Int) (var2 Int) (var3 Int) (var4 Int) (var5 Int) (var6 Int) (var7 Int) (var8 Int) (var9 Int)) (or (not (and (<= 0 var7) (<= 0 var1))) (not (and (inv_main24 var6 var2 var9 var1 var7 var8 var0 var4 var3) (and (and (not (<= 0 (+ (+ var9 (* (- 1) var3)) (- 1)))) (not (<= 0 (+ var3 (* (- 1) (+ var9 (- 5))))))) (not (= var5 0))))))))
(check-sat)
